QBPP_HJ+_30_025_10_3
30 155 280
39 33 16 40 39 9 41 36 47 26 35 6 30 32 1 3 18 23 35 32 31 2 4 26 7 33 20 27 39 44
   0   0   0   0   0   0   0   0   0   0   0   0  22   0   0  22   0   0   0   0  23   0  30   0   0   0  95  79  76   0
   0   0   0   0   0   0  48  61   0   0   0   0   0   0   0  85   0   0   0  51   0  69  85   0   0   0  49   0  11  88
   0   0   0   0   0   0   0  84  24   0   0  21   0   0  23   0   0   0   0   0  71   0  87   0   0   0   0  41   0  65
   0   0   0   0   0   0   0  14   0   0   0   0   0  74  91  26   0   0   0   0  58   0   0   0   0   0   0   0   0   0
   0   0   0   0   0  44   0   0   0   0   0   0   0   0  78   0   0   0  98   0   0   0  57   0   0   0   0   0   0   0
   0   0   0   0  44   0  17   0  74   0   0   0   0   0   0   0   0   0   0   0  30  23   0   0   0   0   0  77   0   0
   0  48   0   0   0  17   0  29   0   0   0   7  83   0  94  73   0   0   0   0   0   0  51  25   0   0   0   0   0   0
   0  61  84  14   0   0  29   0   0  61   0   0   0   0  66  26   0  27   0   0   0   0  19  23  85   0   0  34  56   0
   0   0  24   0   0  74   0   0   0   0   0   0  78   0  39  95   0  87   0   0   0   0   0   0   0   0   0   0   0  36
   0   0   0   0   0   0   0  61   0   0   0   0   0   0   0   0   0   0   0   0   0   0   0   0   0   0   0   0   0   0
   0   0   0   0   0   0   0   0   0   0   0  12  78  61   0   0   0   0  75   0  41   0   0   0  25  42  85  11   0   0
   0   0  21   0   0   0   7   0   0   0  12   0   0   0   4   3   0   0   0  57   0   0   0   0   0  90   0  12   0   0
  22   0   0   0   0   0  83   0  78   0  78   0   0   0   0   0   0   0  15   0   0  40   0   0   0   0   0  36   0   0
   0   0   0  74   0   0   0   0   0   0  61   0   0   0   0   0   0   0   0   0  18   0   0   0   0   0   0  99   0   0
   0   0  23  91  78   0  94  66  39   0   0   4   0   0   0  21   0   0   0   0   0   0   0   0   0  53   0  67   0   0
  22  85   0  26   0   0  73  26  95   0   0   3   0   0  21   0  12  77  38  51   0   0  13   0   0   0  95   0   0   0
   0   0   0   0   0   0   0   0   0   0   0   0   0   0   0  12   0   0  28  34   0   0  96  41   0   0   0  76   0   0
   0   0   0   0   0   0   0  27  87   0   0   0   0   0   0  77   0   0   0   0   0  28  39   0   0  18   0   0   0   0
   0   0   0   0  98   0   0   0   0   0  75   0  15   0   0  38  28   0   0  21  82   0  28  39  44   0   0   0   0  70
   0  51   0   0   0   0   0   0   0   0   0  57   0   0   0  51  34   0  21   0   0  77   0   0   0   0  38  52   0  28
  23   0  71  58   0  30   0   0   0   0  41   0   0  18   0   0   0   0  82   0   0   0  54   0  34   0  34   0   0   0
   0  69   0   0   0  23   0   0   0   0   0   0  40   0   0   0   0  28   0  77   0   0  58   0   0   0   0  66  89   0
  30  85  87   0  57   0  51  19   0   0   0   0   0   0   0  13  96  39  28   0  54  58   0   0   0  68  28   0   0   0
   0   0   0   0   0   0  25  23   0   0   0   0   0   0   0   0  41   0  39   0   0   0   0   0   0   0  15  22   0   0
   0   0   0   0   0   0   0  85   0   0  25   0   0   0   0   0   0   0  44   0  34   0   0   0   0  63  11   0   0   0
   0   0   0   0   0   0   0   0   0   0  42  90   0   0  53   0   0  18   0   0   0   0  68   0  63   0  26  38  33   0
  95  49   0   0   0   0   0   0   0   0  85   0   0   0   0  95   0   0   0  38  34   0  28  15  11  26   0   0   0   0
  79   0  41   0   0  77   0  34   0   0  11  12  36  99  67   0  76   0   0  52   0  66   0  22   0  38   0   0   0   0
  76  11   0   0   0   0   0  56   0   0   0   0   0   0   0   0   0   0   0   0   0  89   0   0   0  33   0   0   0   0
   0  88  65   0   0   0   0   0  36   0   0   0   0   0   0   0   0   0  70  28   0   0   0   0   0   0   0   0   0   0
